18,9	0,0	11,7	16,8	0,0	0,0	0,0	0,0	0,0	9,6
9,1	6,6	0,0	7,7	9,9	0,0	0,0	18,0	0,0	0,0
0,0	0,0	9,6	0,0	11,8	14,9	0,0	0,0	7,4	0,0
6,3	0,0	12,3	0,0	0,0	0,0	7,3	0,0	0,0	0,0
0,0	12,1	0,0	14,9	18,2	0,0	0,0	7,6	0,0	0,0
0,0	8,7	8,3	0,0	15,9	10,1	0,0	0,0	16,2	0,0
0,0	14,1	0,0	8,5	0,0	0,0	16,5	0,0	0,0	8,4
5,4	0,0	17,3	0,0	0,0	0,0	0,0	0,0	0,0	15,6
0,0	7,8	0,0	9,0	18,8	0,0	0,0	17,3	0,0	0,0
0,0	0,0	10,9	0,0	0,0	15,3	10,2	0,0	0,0	13,0
0,0	18,1	0,0	0,0	5,9	0,0	16,9	0,0	15,5	8,2
13,7	0,0	6,4	0,0	17,2	0,0	12,7	9,0	11,7	0,0
0,0	15,1	0,0	0,0	0,0	12,1	0,0	10,8	19,0	9,7
15,8	8,7	17,2	0,0	0,0	6,0	0,0	15,5	5,8	0,0
7,7	0,0	8,4	0,0	10,1	7,4	8,7	18,5	0,0	0,0
0,0	12,3	0,0	7,0	0,0	19,6	0,0	19,4	0,0	0,0
15,7	0,0	11,8	15,5	17,7	0,0	0,0	15,1	0,0	0,0
0,0	0,0	17,8	0,0	0,0	11,7	14,8	0,0	8,3	12,0
6,6	0,0	0,0	17,9	14,8	6,1	18,9	10,6	0,0	18,2
0,0	11,0	0,0	5,6	0,0	0,0	5,3	0,0	9,6	15,1
									
3,0	4,2	2,8	3,5	4,6	3,7	4,5	4,1	4,9	3,2
